0000000000000000
0011110000111100
0011111000111100
0011111100111100
0001111100111100
0000111110111100
0001111111111000
0011111111111000
0011111011110000
0011110111110000
0011110111110000
0011110011111000
0011110011111100
0011110001111100
0000000000000000
0000000000000000
